(declare-const c_0 Real)
(declare-const c_1 Real)
(declare-const c_2 Real)
(declare-const c_3 Real)
(declare-const c_4 Real)
(declare-const c_5 Real)
(declare-const c_6 Real)
(declare-const c_7 Real)
(declare-const c_8 Real)
(declare-const c_9 Real)
(declare-const c_10 Real)
(declare-const c_11 Real)
(declare-const c_12 Real)
(declare-const c_13 Real)
(declare-const c_14 Real)
(declare-const c_15 Real)
(declare-const c_16 Real)
(declare-const c_17 Real)
(declare-const c_18 Real)
(declare-const c_19 Real)
(declare-const c_20 Real)
(declare-const c_21 Real)
(declare-const c_22 Real)
(declare-const c_23 Real)
(declare-const c_24 Real)
(declare-const c_25 Real)
(declare-const c_26 Real)
(declare-const c_27 Real)
(declare-const c_28 Real)
(declare-const c_29 Real)
(declare-const c_30 Real)
(declare-const c_31 Real)
(declare-const c_32 Real)
(declare-const c_33 Real)
(declare-const c_34 Real)
(declare-const c_35 Real)
(declare-const c_36 Real)
(declare-const c_37 Real)
(declare-const c_38 Real)
(declare-const c_39 Real)
(declare-const c_40 Real)
(declare-const c_41 Real)
(declare-const c_42 Real)
(declare-const c_43 Real)
(declare-const c_44 Real)
(declare-const s_0 Real)
(declare-const s_1 Real)
(declare-const s_2 Real)
(declare-const s_3 Real)
(declare-const s_4 Real)
(declare-const s_5 Real)
(declare-const s_6 Real)
(declare-const s_7 Real)
(declare-const s_8 Real)
(declare-const s_9 Real)
(declare-const s_10 Real)
(declare-const s_11 Real)
(declare-const s_12 Real)
(declare-const s_13 Real)
(declare-const s_14 Real)
(declare-const s_15 Real)
(declare-const s_16 Real)
(declare-const s_17 Real)
(declare-const s_18 Real)
(declare-const s_19 Real)
(declare-const s_20 Real)
(declare-const s_21 Real)
(declare-const s_22 Real)
(declare-const s_23 Real)
(declare-const s_24 Real)
(declare-const s_25 Real)
(declare-const s_26 Real)
(declare-const s_27 Real)
(declare-const s_28 Real)
(declare-const s_29 Real)
(declare-const s_30 Real)
(declare-const s_31 Real)
(declare-const s_32 Real)
(declare-const s_33 Real)
(declare-const s_34 Real)
(declare-const s_35 Real)
(declare-const s_36 Real)
(declare-const s_37 Real)
(declare-const s_38 Real)
(declare-const s_39 Real)
(declare-const s_40 Real)
(declare-const s_41 Real)
(declare-const s_42 Real)
(declare-const s_43 Real)
(declare-const s_44 Real)
(assert (forall ((c Real) (x Real) (y Real) (z Real) ) (=> (and (>= (+ (* 1024 1) (* 1 c ) ) 0) (>= (+ (* 1023 1) (* (- 1) c ) ) 0) (>= (+ (* 1024 1) (* 1 x ) ) 0) (>= (+ (* 1023 1) (* (- 1) x ) ) 0) (>= (+ (* 1024 1) (* 1 y ) ) 0) (>= (+ (* 1023 1) (* (- 1) y ) ) 0) (>= (+ (* 1024 1) (* 1 z ) ) 0) (>= (+ (* 1023 1) (* (- 1) z ) ) 0) ) (>= (+ (* 1 c s_1 ) (* 1 c s_2 x ) (* 1 c s_3 y ) (* 1 c s_4 z ) (* 1 c c s_5 ) (* 1 s_0 ) (* 1 s_10 y ) (* 1 s_11 y z ) (* 1 s_12 y y ) (* 1 s_13 z ) (* 1 s_14 z z ) (* 1 s_6 x ) (* 1 s_7 x y ) (* 1 s_8 x z ) (* 1 s_9 x x ) ) 0) )))
(assert (forall ((c Real) (x Real) (y Real) (z Real) ) (=> (and (>= (+ (* 1024 1) (* 1 c ) ) 0) (>= (+ (* 1023 1) (* (- 1) c ) ) 0) (>= (+ (* 1024 1) (* 1 x ) ) 0) (>= (+ (* 1023 1) (* (- 1) x ) ) 0) (>= (+ (* 1024 1) (* 1 y ) ) 0) (>= (+ (* 1023 1) (* (- 1) y ) ) 0) (>= (+ (* 1024 1) (* 1 z ) ) 0) (>= (+ (* 1023 1) (* (- 1) z ) ) 0) ) (>= (+ (* 1 c c_1 ) (* 1 c c_2 x ) (* 1 c c_3 y ) (* 1 c c_4 z ) (* 1 c c c_5 ) (* 1 c_0 ) (* 1 c_10 y ) (* 1 c_11 y z ) (* 1 c_12 y y ) (* 1 c_13 z ) (* 1 c_14 z z ) (* 1 c_6 x ) (* 1 c_7 x y ) (* 1 c_8 x z ) (* 1 c_9 x x ) ) 0) )))
(assert (forall ((c Real) (x Real) (y Real) (z Real) ) (=> (and (>= (+ (* 1023 1) (* (- 1) z ) ) 0) (>= (+ (* 1024 1) (* 1 z ) ) 0) (>= (+ (* 1023 1) (* (- 1) y ) ) 0) (>= (+ (* 1024 1) (* 1 y ) ) 0) (>= (+ (* 1023 1) (* (- 1) x ) ) 0) (>= (+ (* 1024 1) (* 1 x ) ) 0) (>= (+ (* 1023 1) (* (- 1) c ) ) 0) (>= (+ (* 1024 1) (* 1 c ) ) 0) (>= (+ (* 1 c s_1 ) (* 1 c s_2 x ) (* 1 c s_3 y ) (* 1 c s_4 z ) (* 1 c c s_5 ) (* 1 s_0 ) (* 1 s_10 y ) (* 1 s_11 y z ) (* 1 s_12 y y ) (* 1 s_13 z ) (* 1 s_14 z z ) (* 1 s_6 x ) (* 1 s_7 x y ) (* 1 s_8 x z ) (* 1 s_9 x x ) ) 0) ) (>= (+ (* 1 s_15 ) (* 1 s_21 x ) (* 1 s_22 x y ) (* 1 s_23 x z ) (* 1 s_24 x x ) (* 1 s_25 y ) (* 1 s_26 y z ) (* 1 s_27 y y ) (* 1 s_28 z ) (* 1 s_29 z z ) ) 0) )))
(assert (forall ((c Real) (x Real) (y Real) (z Real) ) (=> (and (>= (+ (* 1023 1) (* (- 1) z ) ) 0) (>= (+ (* 1024 1) (* 1 z ) ) 0) (>= (+ (* 1023 1) (* (- 1) y ) ) 0) (>= (+ (* 1024 1) (* 1 y ) ) 0) (>= (+ (* 1023 1) (* (- 1) x ) ) 0) (>= (+ (* 1024 1) (* 1 x ) ) 0) (>= (+ (* 1023 1) (* (- 1) c ) ) 0) (>= (+ (* 1024 1) (* 1 c ) ) 0) (>= (+ (* 1 c s_1 ) (* 1 c s_2 x ) (* 1 c s_3 y ) (* 1 c s_4 z ) (* 1 c c s_5 ) (* 1 s_0 ) (* 1 s_10 y ) (* 1 s_11 y z ) (* 1 s_12 y y ) (* 1 s_13 z ) (* 1 s_14 z z ) (* 1 s_6 x ) (* 1 s_7 x y ) (* 1 s_8 x z ) (* 1 s_9 x x ) ) 0) ) (>= (+ (* 1 c_15 ) (* 1 c_21 x ) (* 1 c_22 x y ) (* 1 c_23 x z ) (* 1 c_24 x x ) (* 1 c_25 y ) (* 1 c_26 y z ) (* 1 c_27 y y ) (* 1 c_28 z ) (* 1 c_29 z z ) ) 0) )))
(assert (forall ((c Real) (x Real) (y Real) (z Real) ) (=> (and (>= (+ (* 1023 1) (* (- 1) z ) ) 0) (>= (+ (* 1024 1) (* 1 z ) ) 0) (>= (+ (* 1023 1) (* (- 1) y ) ) 0) (>= (+ (* 1024 1) (* 1 y ) ) 0) (>= (+ (* 1023 1) (* (- 1) x ) ) 0) (>= (+ (* 1024 1) (* 1 x ) ) 0) (>= (+ (* 1023 1) (* (- 1) c ) ) 0) (>= (+ (* 1024 1) (* 1 c ) ) 0) (>= (+ (* 1 c s_1 ) (* 1 c s_2 x ) (* 1 c s_3 y ) (* 1 c s_4 z ) (* 1 c c s_5 ) (* 1 s_0 ) (* 1 s_10 y ) (* 1 s_11 y z ) (* 1 s_12 y y ) (* 1 s_13 z ) (* 1 s_14 z z ) (* 1 s_6 x ) (* 1 s_7 x y ) (* 1 s_8 x z ) (* 1 s_9 x x ) ) 0) ) (>= (+ (* (- 1) 1) (* 1 c c_1 ) (* 1 c c_2 x ) (* 1 c c_3 y ) (* 1 c c_4 z ) (* 1 c c c_5 ) (* 1 c_0 ) (* 1 c_10 y ) (* 1 c_11 y z ) (* 1 c_12 y y ) (* 1 c_13 z ) (* 1 c_14 z z ) (* (- 1) c_15 ) (* (- 1) c_21 x ) (* (- 1) c_22 x y ) (* (- 1) c_23 x z ) (* (- 1) c_24 x x ) (* (- 1) c_25 y ) (* (- 1) c_26 y z ) (* (- 1) c_27 y y ) (* (- 1) c_28 z ) (* (- 1) c_29 z z ) (* 1 c_6 x ) (* 1 c_7 x y ) (* 1 c_8 x z ) (* 1 c_9 x x ) ) 0) )))
(assert (forall ((c Real) (x Real) (y Real) (z Real) ) (=> (and (>= (+ (* (- 1) 1) (* (- 1) x ) (* 1 z ) ) 0) (>= (+ (* (- 1) 1) (* (- 1) x ) (* 1 y ) ) 0) (>= (+ (* 1023 1) (* (- 1) x ) ) 0) (>= (+ (* 1023 1) (* (- 1) y ) ) 0) (>= (+ (* 1023 1) (* (- 1) z ) ) 0) (>= (* 1 c ) 0) (>= (+ (* 1024 1) (* 1 x ) ) 0) (>= (+ (* 1 c s_16 ) (* 1 c s_17 x ) (* 1 c s_18 y ) (* 1 c s_19 z ) (* 1 c c s_20 ) (* 1 s_15 ) (* 1 s_21 x ) (* 1 s_22 x y ) (* 1 s_23 x z ) (* 1 s_24 x x ) (* 1 s_25 y ) (* 1 s_26 y z ) (* 1 s_27 y y ) (* 1 s_28 z ) (* 1 s_29 z z ) ) 0) ) (>= (+ (* 1 c s_16 ) (* 1 c s_17 ) (* 1 c s_17 x ) (* 1 c s_18 y ) (* 1 c s_19 z ) (* 2 c s_20 ) (* 1 c c s_20 ) (* 1 s_15 ) (* 1 s_16 ) (* 1 s_17 ) (* 1 s_17 x ) (* 1 s_18 y ) (* 1 s_19 z ) (* 1 s_20 ) (* 1 s_21 ) (* 1 s_21 x ) (* 1 s_22 x y ) (* 1 s_22 y ) (* 1 s_23 x z ) (* 1 s_23 z ) (* 1 s_24 ) (* 2 s_24 x ) (* 1 s_24 x x ) (* 1 s_25 y ) (* 1 s_26 y z ) (* 1 s_27 y y ) (* 1 s_28 z ) (* 1 s_29 z z ) ) 0) )))
(assert (forall ((c Real) (x Real) (y Real) (z Real) ) (=> (and (>= (+ (* (- 1) 1) (* (- 1) x ) (* 1 z ) ) 0) (>= (+ (* (- 1) 1) (* (- 1) x ) (* 1 y ) ) 0) (>= (+ (* 1023 1) (* (- 1) x ) ) 0) (>= (+ (* 1023 1) (* (- 1) y ) ) 0) (>= (+ (* 1023 1) (* (- 1) z ) ) 0) (>= (* 1 c ) 0) (>= (+ (* 1024 1) (* 1 x ) ) 0) (>= (+ (* 1 c s_16 ) (* 1 c s_17 x ) (* 1 c s_18 y ) (* 1 c s_19 z ) (* 1 c c s_20 ) (* 1 s_15 ) (* 1 s_21 x ) (* 1 s_22 x y ) (* 1 s_23 x z ) (* 1 s_24 x x ) (* 1 s_25 y ) (* 1 s_26 y z ) (* 1 s_27 y y ) (* 1 s_28 z ) (* 1 s_29 z z ) ) 0) ) (>= (+ (* 1 c c_16 ) (* 1 c c_17 ) (* 1 c c_17 x ) (* 1 c c_18 y ) (* 1 c c_19 z ) (* 2 c c_20 ) (* 1 c c c_20 ) (* 1 c_15 ) (* 1 c_16 ) (* 1 c_17 ) (* 1 c_17 x ) (* 1 c_18 y ) (* 1 c_19 z ) (* 1 c_20 ) (* 1 c_21 ) (* 1 c_21 x ) (* 1 c_22 x y ) (* 1 c_22 y ) (* 1 c_23 x z ) (* 1 c_23 z ) (* 1 c_24 ) (* 2 c_24 x ) (* 1 c_24 x x ) (* 1 c_25 y ) (* 1 c_26 y z ) (* 1 c_27 y y ) (* 1 c_28 z ) (* 1 c_29 z z ) ) 0) )))
(assert (forall ((c Real) (x Real) (y Real) (z Real) ) (=> (and (>= (+ (* (- 1) 1) (* (- 1) x ) (* 1 z ) ) 0) (>= (+ (* (- 1) 1) (* (- 1) x ) (* 1 y ) ) 0) (>= (+ (* 1023 1) (* (- 1) x ) ) 0) (>= (+ (* 1023 1) (* (- 1) y ) ) 0) (>= (+ (* 1023 1) (* (- 1) z ) ) 0) (>= (* 1 c ) 0) (>= (+ (* 1024 1) (* 1 x ) ) 0) (>= (+ (* 1 c s_16 ) (* 1 c s_17 x ) (* 1 c s_18 y ) (* 1 c s_19 z ) (* 1 c c s_20 ) (* 1 s_15 ) (* 1 s_21 x ) (* 1 s_22 x y ) (* 1 s_23 x z ) (* 1 s_24 x x ) (* 1 s_25 y ) (* 1 s_26 y z ) (* 1 s_27 y y ) (* 1 s_28 z ) (* 1 s_29 z z ) ) 0) ) (>= (+ (* (- 1) 1) (* (- 1) c c_17 ) (* (- 2) c c_20 ) (* (- 1) c_16 ) (* (- 1) c_17 ) (* (- 1) c_17 x ) (* (- 1) c_18 y ) (* (- 1) c_19 z ) (* (- 1) c_20 ) (* (- 1) c_21 ) (* (- 1) c_22 y ) (* (- 1) c_23 z ) (* (- 1) c_24 ) (* (- 2) c_24 x ) ) 0) )))
(assert (forall ((c Real) (x Real) (y Real) (z Real) ) (=> (and (>= (+ (* 1 x ) (* (- 1) z ) ) 0) (>= (+ (* (- 1) 1) (* (- 1) x ) (* 1 y ) ) 0) (>= (+ (* 1023 1) (* (- 1) x ) ) 0) (>= (+ (* 1023 1) (* (- 1) y ) ) 0) (>= (+ (* 1023 1) (* (- 1) z ) ) 0) (>= (* 1 c ) 0) (>= (+ (* 1024 1) (* 1 x ) ) 0) (>= (+ (* 1 c s_16 ) (* 1 c s_17 x ) (* 1 c s_18 y ) (* 1 c s_19 z ) (* 1 c c s_20 ) (* 1 s_15 ) (* 1 s_21 x ) (* 1 s_22 x y ) (* 1 s_23 x z ) (* 1 s_24 x x ) (* 1 s_25 y ) (* 1 s_26 y z ) (* 1 s_27 y y ) (* 1 s_28 z ) (* 1 s_29 z z ) ) 0) ) (>= (+ (* 1 c s_16 ) (* 1 c s_17 x ) (* 1 c s_18 y ) (* 1 c s_19 ) (* 1 c s_19 z ) (* 2 c s_20 ) (* 1 c c s_20 ) (* 1 s_15 ) (* 1 s_16 ) (* 1 s_17 x ) (* 1 s_18 y ) (* 1 s_19 ) (* 1 s_19 z ) (* 1 s_20 ) (* 1 s_21 x ) (* 1 s_22 x y ) (* 1 s_23 x ) (* 1 s_23 x z ) (* 1 s_24 x x ) (* 1 s_25 y ) (* 1 s_26 y ) (* 1 s_26 y z ) (* 1 s_27 y y ) (* 1 s_28 ) (* 1 s_28 z ) (* 1 s_29 ) (* 2 s_29 z ) (* 1 s_29 z z ) ) 0) )))
(assert (forall ((c Real) (x Real) (y Real) (z Real) ) (=> (and (>= (+ (* 1 x ) (* (- 1) z ) ) 0) (>= (+ (* (- 1) 1) (* (- 1) x ) (* 1 y ) ) 0) (>= (+ (* 1023 1) (* (- 1) x ) ) 0) (>= (+ (* 1023 1) (* (- 1) y ) ) 0) (>= (+ (* 1023 1) (* (- 1) z ) ) 0) (>= (* 1 c ) 0) (>= (+ (* 1024 1) (* 1 x ) ) 0) (>= (+ (* 1 c s_16 ) (* 1 c s_17 x ) (* 1 c s_18 y ) (* 1 c s_19 z ) (* 1 c c s_20 ) (* 1 s_15 ) (* 1 s_21 x ) (* 1 s_22 x y ) (* 1 s_23 x z ) (* 1 s_24 x x ) (* 1 s_25 y ) (* 1 s_26 y z ) (* 1 s_27 y y ) (* 1 s_28 z ) (* 1 s_29 z z ) ) 0) ) (>= (+ (* 1 c c_16 ) (* 1 c c_17 x ) (* 1 c c_18 y ) (* 1 c c_19 ) (* 1 c c_19 z ) (* 2 c c_20 ) (* 1 c c c_20 ) (* 1 c_15 ) (* 1 c_16 ) (* 1 c_17 x ) (* 1 c_18 y ) (* 1 c_19 ) (* 1 c_19 z ) (* 1 c_20 ) (* 1 c_21 x ) (* 1 c_22 x y ) (* 1 c_23 x ) (* 1 c_23 x z ) (* 1 c_24 x x ) (* 1 c_25 y ) (* 1 c_26 y ) (* 1 c_26 y z ) (* 1 c_27 y y ) (* 1 c_28 ) (* 1 c_28 z ) (* 1 c_29 ) (* 2 c_29 z ) (* 1 c_29 z z ) ) 0) )))
(assert (forall ((c Real) (x Real) (y Real) (z Real) ) (=> (and (>= (+ (* 1 x ) (* (- 1) z ) ) 0) (>= (+ (* (- 1) 1) (* (- 1) x ) (* 1 y ) ) 0) (>= (+ (* 1023 1) (* (- 1) x ) ) 0) (>= (+ (* 1023 1) (* (- 1) y ) ) 0) (>= (+ (* 1023 1) (* (- 1) z ) ) 0) (>= (* 1 c ) 0) (>= (+ (* 1024 1) (* 1 x ) ) 0) (>= (+ (* 1 c s_16 ) (* 1 c s_17 x ) (* 1 c s_18 y ) (* 1 c s_19 z ) (* 1 c c s_20 ) (* 1 s_15 ) (* 1 s_21 x ) (* 1 s_22 x y ) (* 1 s_23 x z ) (* 1 s_24 x x ) (* 1 s_25 y ) (* 1 s_26 y z ) (* 1 s_27 y y ) (* 1 s_28 z ) (* 1 s_29 z z ) ) 0) ) (>= (+ (* (- 1) 1) (* (- 1) c c_19 ) (* (- 2) c c_20 ) (* (- 1) c_16 ) (* (- 1) c_17 x ) (* (- 1) c_18 y ) (* (- 1) c_19 ) (* (- 1) c_19 z ) (* (- 1) c_20 ) (* (- 1) c_23 x ) (* (- 1) c_26 y ) (* (- 1) c_28 ) (* (- 1) c_29 ) (* (- 2) c_29 z ) ) 0) )))
(assert (forall ((c Real) (x Real) (y Real) (z Real) ) (=> (and (>= (+ (* 1 x ) (* (- 1) y ) ) 0) (>= (+ (* 1023 1) (* (- 1) x ) ) 0) (>= (+ (* 1023 1) (* (- 1) y ) ) 0) (>= (+ (* 1023 1) (* (- 1) z ) ) 0) (>= (* 1 c ) 0) (>= (+ (* 1024 1) (* 1 x ) ) 0) (>= (+ (* 1 c s_16 ) (* 1 c s_17 x ) (* 1 c s_18 y ) (* 1 c s_19 z ) (* 1 c c s_20 ) (* 1 s_15 ) (* 1 s_21 x ) (* 1 s_22 x y ) (* 1 s_23 x z ) (* 1 s_24 x x ) (* 1 s_25 y ) (* 1 s_26 y z ) (* 1 s_27 y y ) (* 1 s_28 z ) (* 1 s_29 z z ) ) 0) ) (>= (+ (* 1 c s_31 ) (* 1 c s_32 x ) (* 1 c s_33 y ) (* 1 c s_34 z ) (* 1 c c s_35 ) (* 1 s_30 ) (* 1 s_36 x ) (* 1 s_37 x y ) (* 1 s_38 x z ) (* 1 s_39 x x ) (* 1 s_40 y ) (* 1 s_41 y z ) (* 1 s_42 y y ) (* 1 s_43 z ) (* 1 s_44 z z ) ) 0) )))
(assert (forall ((c Real) (x Real) (y Real) (z Real) ) (=> (and (>= (+ (* 1 x ) (* (- 1) y ) ) 0) (>= (+ (* 1023 1) (* (- 1) x ) ) 0) (>= (+ (* 1023 1) (* (- 1) y ) ) 0) (>= (+ (* 1023 1) (* (- 1) z ) ) 0) (>= (* 1 c ) 0) (>= (+ (* 1024 1) (* 1 x ) ) 0) (>= (+ (* 1 c s_16 ) (* 1 c s_17 x ) (* 1 c s_18 y ) (* 1 c s_19 z ) (* 1 c c s_20 ) (* 1 s_15 ) (* 1 s_21 x ) (* 1 s_22 x y ) (* 1 s_23 x z ) (* 1 s_24 x x ) (* 1 s_25 y ) (* 1 s_26 y z ) (* 1 s_27 y y ) (* 1 s_28 z ) (* 1 s_29 z z ) ) 0) ) (>= (+ (* 1 c c_31 ) (* 1 c c_32 x ) (* 1 c c_33 y ) (* 1 c c_34 z ) (* 1 c c c_35 ) (* 1 c_30 ) (* 1 c_36 x ) (* 1 c_37 x y ) (* 1 c_38 x z ) (* 1 c_39 x x ) (* 1 c_40 y ) (* 1 c_41 y z ) (* 1 c_42 y y ) (* 1 c_43 z ) (* 1 c_44 z z ) ) 0) )))

(check-sat)
(get-model)
